NAME          BLANK   
ROWS
 N  OBJROW
 L  R0000000
 L  R0000001
 L  R0000002
 L  R0000003
 L  R0000004
 L  R0000005
 L  R0000006
 L  R0000007
 L  R0000008
 L  R0000009
 L  R0000010
 L  R0000011
 L  R0000012
 L  R0000013
 L  R0000014
 L  R0000015
 L  R0000016
 L  R0000017
 L  R0000018
 L  R0000019
 L  R0000020
 L  R0000021
 L  R0000022
 L  R0000023
 L  R0000024
 L  R0000025
 L  R0000026
 L  R0000027
 L  R0000028
 L  R0000029
 L  R0000030
 L  R0000031
 L  R0000032
 L  R0000033
 L  R0000034
 L  R0000035
 L  R0000036
 L  R0000037
 L  R0000038
 L  R0000039
 L  R0000040
 L  R0000041
 L  R0000042
 L  R0000043
 L  R0000044
 L  R0000045
 L  R0000046
 L  R0000047
 L  R0000048
 L  R0000049
 E  R0000050
 E  R0000051
 E  R0000052
 E  R0000053
 E  R0000054
 E  R0000055
 E  R0000056
 E  R0000057
 E  R0000058
 E  R0000059
 E  R0000060
 E  R0000061
 E  R0000062
 E  R0000063
 E  R0000064
 E  R0000065
 E  R0000066
 E  R0000067
 E  R0000068
 E  R0000069
 E  R0000070
 E  R0000071
 E  R0000072
 E  R0000073
 E  R0000074
 E  R0000075
 E  R0000076
 E  R0000077
 E  R0000078
 E  R0000079
 E  R0000080
 E  R0000081
 E  R0000082
 E  R0000083
 E  R0000084
 E  R0000085
COLUMNS
    C0000000  OBJROW    3.             R0000003   -1.        
    C0000001  OBJROW    3.             R0000004   -1.        
    C0000001  R0000010   -1.        
    C0000002  OBJROW    3.             R0000005   -1.        
    C0000003  OBJROW    3.             R0000011   -2.        
    C0000004  OBJROW    3.             R0000006   -1.        
    C0000004  R0000012   -1.        
    C0000005  OBJROW    3.             R0000007   -1.        
    C0000005  R0000013   -1.        
    C0000006  OBJROW    3.             R0000008   -1.        
    C0000007  OBJROW    3.             R0000009   -1.        
    C0000008  OBJROW    3.             R0000003  1.          
    C0000008  R0000062  1.          
    C0000009  OBJROW    4.             R0000063  1.          
    C0000009  R0000064  1.          
    C0000010  OBJROW    3.             R0000004  1.          
    C0000010  R0000065  1.          
    C0000011  OBJROW    3.             R0000005  1.          
    C0000011  R0000066  1.          
    C0000012  OBJROW    3.             R0000006  1.          
    C0000012  R0000067  1.          
    C0000013  OBJROW    3.             R0000007  1.          
    C0000013  R0000068  1.          
    C0000014  OBJROW    3.             R0000069  1.          
    C0000014  R0000071  0.5         
    C0000015  OBJROW    3.             R0000070  1.          
    C0000015  R0000071  0.5         
    C0000016  OBJROW    3.             R0000008  1.          
    C0000016  R0000072  1.          
    C0000017  OBJROW    3.             R0000009  1.          
    C0000017  R0000073  1.          
    C0000018  R0000000   -1.           R0000010  1.          
    C0000019  R0000000   -1.           R0000011  1.          
    C0000020  R0000001   -1.           R0000011  1.          
    C0000021  R0000000   -1.           R0000012  1.          
    C0000022  R0000001   -1.           R0000013  1.          
    C0000023  R0000000   -1.           R0000074  1.          
    C0000024  R0000000   -1.           R0000075  1.          
    C0000025  R0000002   -1.           R0000076  1.          
    C0000026  R0000001   -1.           R0000077  1.          
    C0000027  R0000000   -1.           R0000078  1.          
    C0000028  R0000001   -1.           R0000079  1.          
    C0000029  R0000000   -1.           R0000080  1.          
    C0000030  R0000000   -1.           R0000081  1.          
    C0000031  R0000001   -1.           R0000082  1.          
    C0000032  R0000002   -1.           R0000083  1.          
    C0000033  R0000084  1.          
    C0000034  R0000002   -1.           R0000085  1.          
    C0000035  R0000014  1.             R0000062   -0.33333333
    C0000035  R0000074   -0.80274156
    C0000036  R0000015  1.             R0000063   -0.33333333
    C0000036  R0000075   -0.80274156
    C0000037  R0000016  1.             R0000064   -0.33333333
    C0000037  R0000076   -0.80274156
    C0000038  R0000017  1.             R0000065   -0.33333333
    C0000038  R0000077   -0.80274156
    C0000039  R0000018  1.             R0000066   -0.33333333
    C0000039  R0000078   -0.80274156
    C0000040  R0000019  1.             R0000067   -0.33333333
    C0000040  R0000079   -0.80274156
    C0000041  R0000020  1.             R0000068   -0.33333333
    C0000041  R0000080   -0.80274156
    C0000042  R0000021  1.             R0000069   -0.33333333
    C0000042  R0000081   -0.80274156
    C0000043  R0000022  1.             R0000070   -0.33333333
    C0000043  R0000082   -0.80274156
    C0000044  R0000023  1.             R0000071   -0.33333333
    C0000044  R0000083   -0.80274156
    C0000045  R0000024  1.             R0000072   -0.33333333
    C0000045  R0000084   -0.80274156
    C0000046  R0000025  1.             R0000073   -0.33333333
    C0000046  R0000085   -0.80274156
    C0000047  R0000026  1.             R0000062   -0.33333333
    C0000047  R0000074   -0.11936635
    C0000048  R0000027  1.             R0000063   -0.33333333
    C0000048  R0000075   -0.11936635
    C0000049  R0000028  1.             R0000064   -0.33333333
    C0000049  R0000076   -0.11936635
    C0000050  R0000029  1.             R0000065   -0.33333333
    C0000050  R0000077   -0.11936635
    C0000051  R0000030  1.             R0000066   -0.33333333
    C0000051  R0000078   -0.11936635
    C0000052  R0000031  1.             R0000067   -0.33333333
    C0000052  R0000079   -0.11936635
    C0000053  R0000032  1.             R0000068   -0.33333333
    C0000053  R0000080   -0.11936635
    C0000054  R0000033  1.             R0000069   -0.33333333
    C0000054  R0000081   -0.11936635
    C0000055  R0000034  1.             R0000070   -0.33333333
    C0000055  R0000082   -0.11936635
    C0000056  R0000035  1.             R0000071   -0.33333333
    C0000056  R0000083   -0.11936635
    C0000057  R0000036  1.             R0000072   -0.33333333
    C0000057  R0000084   -0.11936635
    C0000058  R0000037  1.             R0000073   -0.33333333
    C0000058  R0000085   -0.11936635
    C0000059  R0000038  1.             R0000062   -0.33333333
    C0000059  R0000074  -0.077892089
    C0000060  R0000039  1.             R0000063   -0.33333333
    C0000060  R0000075  -0.077892089
    C0000061  R0000040  1.             R0000064   -0.33333333
    C0000061  R0000076  -0.077892089
    C0000062  R0000041  1.             R0000065   -0.33333333
    C0000062  R0000077  -0.077892089
    C0000063  R0000042  1.             R0000066   -0.33333333
    C0000063  R0000078  -0.077892089
    C0000064  R0000043  1.             R0000067   -0.33333333
    C0000064  R0000079  -0.077892089
    C0000065  R0000044  1.             R0000068   -0.33333333
    C0000065  R0000080  -0.077892089
    C0000066  R0000045  1.             R0000069   -0.33333333
    C0000066  R0000081  -0.077892089
    C0000067  R0000046  1.             R0000070   -0.33333333
    C0000067  R0000082  -0.077892089
    C0000068  R0000047  1.             R0000071   -0.33333333
    C0000068  R0000083  -0.077892089
    C0000069  R0000048  1.             R0000072   -0.33333333
    C0000069  R0000084  -0.077892089
    C0000070  R0000049  1.             R0000073   -0.33333333
    C0000070  R0000085  -0.077892089
    C0000071  R0000014   -1.           R0000050  1.          
    C0000072  R0000015   -1.           R0000051  1.          
    C0000073  R0000016   -1.           R0000052  1.          
    C0000074  R0000017   -1.           R0000053  1.          
    C0000075  R0000018   -1.           R0000054  1.          
    C0000076  R0000019   -1.           R0000055  1.          
    C0000077  R0000020   -1.           R0000056  1.          
    C0000078  R0000021   -1.           R0000057  1.          
    C0000079  R0000022   -1.           R0000058  1.          
    C0000080  R0000023   -1.           R0000059  1.          
    C0000081  R0000024   -1.           R0000060  1.          
    C0000082  R0000025   -1.           R0000061  1.          
    C0000083  R0000026   -1.           R0000050  1.          
    C0000083  R0000062   -0.33333333   R0000074   -0.80274156
    C0000084  R0000027   -1.           R0000051  1.          
    C0000084  R0000063   -0.33333333   R0000075   -0.80274156
    C0000085  R0000028   -1.           R0000052  1.          
    C0000085  R0000064   -0.33333333   R0000076   -0.80274156
    C0000086  R0000029   -1.           R0000053  1.          
    C0000086  R0000065   -0.33333333   R0000077   -0.80274156
    C0000087  R0000030   -1.           R0000054  1.          
    C0000087  R0000066   -0.33333333   R0000078   -0.80274156
    C0000088  R0000031   -1.           R0000055  1.          
    C0000088  R0000067   -0.33333333   R0000079   -0.80274156
    C0000089  R0000032   -1.           R0000056  1.          
    C0000089  R0000068   -0.33333333   R0000080   -0.80274156
    C0000090  R0000033   -1.           R0000057  1.          
    C0000090  R0000069   -0.33333333   R0000081   -0.80274156
    C0000091  R0000034   -1.           R0000058  1.          
    C0000091  R0000070   -0.33333333   R0000082   -0.80274156
    C0000092  R0000035   -1.           R0000059  1.          
    C0000092  R0000071   -0.33333333   R0000083   -0.80274156
    C0000093  R0000036   -1.           R0000060  1.          
    C0000093  R0000072   -0.33333333   R0000084   -0.80274156
    C0000094  R0000037   -1.           R0000061  1.          
    C0000094  R0000073   -0.33333333   R0000085   -0.80274156
    C0000095  R0000038   -1.           R0000050  1.          
    C0000095  R0000062   -0.66666667   R0000074   -0.92210791
    C0000096  R0000039   -1.           R0000051  1.          
    C0000096  R0000063   -0.66666667   R0000075   -0.92210791
    C0000097  R0000040   -1.           R0000052  1.          
    C0000097  R0000064   -0.66666667   R0000076   -0.92210791
    C0000098  R0000041   -1.           R0000053  1.          
    C0000098  R0000065   -0.66666667   R0000077   -0.92210791
    C0000099  R0000042   -1.           R0000054  1.          
    C0000099  R0000066   -0.66666667   R0000078   -0.92210791
    C0000100  R0000043   -1.           R0000055  1.          
    C0000100  R0000067   -0.66666667   R0000079   -0.92210791
    C0000101  R0000044   -1.           R0000056  1.          
    C0000101  R0000068   -0.66666667   R0000080   -0.92210791
    C0000102  R0000045   -1.           R0000057  1.          
    C0000102  R0000069   -0.66666667   R0000081   -0.92210791
    C0000103  R0000046   -1.           R0000058  1.          
    C0000103  R0000070   -0.66666667   R0000082   -0.92210791
    C0000104  R0000047   -1.           R0000059  1.          
    C0000104  R0000071   -0.66666667   R0000083   -0.92210791
    C0000105  R0000048   -1.           R0000060  1.          
    C0000105  R0000072   -0.66666667   R0000084   -0.92210791
    C0000106  R0000049   -1.           R0000061  1.          
    C0000106  R0000073   -0.66666667   R0000085   -0.92210791
RHS
    RHS       OBJROW    7.             R0000000   -5.        
    RHS       R0000001   -3.           R0000002   -2.        
    RHS       R0000050  1.             R0000051  1.          
    RHS       R0000052  1.             R0000053  1.          
    RHS       R0000054  1.             R0000055  1.          
    RHS       R0000056  1.             R0000057  1.          
    RHS       R0000058  1.             R0000059  1.          
    RHS       R0000060  1.             R0000061  1.          
BOUNDS
 BV BOUND     C0000000  1.          
 BV BOUND     C0000001  1.          
 BV BOUND     C0000002  1.          
 BV BOUND     C0000003  1.          
 BV BOUND     C0000004  1.          
 BV BOUND     C0000005  1.          
 BV BOUND     C0000006  1.          
 BV BOUND     C0000007  1.          
 BV BOUND     C0000008  1.          
 BV BOUND     C0000009  1.          
 BV BOUND     C0000010  1.          
 BV BOUND     C0000011  1.          
 BV BOUND     C0000012  1.          
 BV BOUND     C0000013  1.          
 BV BOUND     C0000014  1.          
 BV BOUND     C0000015  1.          
 BV BOUND     C0000016  1.          
 BV BOUND     C0000017  1.          
 BV BOUND     C0000018  1.          
 BV BOUND     C0000019  1.          
 BV BOUND     C0000020  1.          
 BV BOUND     C0000021  1.          
 BV BOUND     C0000022  1.          
 UP BOUND     C0000023  1.          
 UP BOUND     C0000024  1.          
 UP BOUND     C0000025  1.          
 UP BOUND     C0000026  1.          
 UP BOUND     C0000027  1.          
 UP BOUND     C0000028  1.          
 UP BOUND     C0000029  1.          
 UP BOUND     C0000030  1.          
 UP BOUND     C0000031  1.          
 UP BOUND     C0000032  1.          
 UP BOUND     C0000033  1.          
 UP BOUND     C0000034  1.          
 UP BOUND     C0000035  1.          
 UP BOUND     C0000036  1.          
 UP BOUND     C0000037  1.          
 UP BOUND     C0000038  1.          
 UP BOUND     C0000039  1.          
 UP BOUND     C0000040  1.          
 UP BOUND     C0000041  1.          
 UP BOUND     C0000042  1.          
 UP BOUND     C0000043  1.          
 UP BOUND     C0000044  1.          
 UP BOUND     C0000045  1.          
 UP BOUND     C0000046  1.          
 UP BOUND     C0000047  1.          
 UP BOUND     C0000048  1.          
 UP BOUND     C0000049  1.          
 UP BOUND     C0000050  1.          
 UP BOUND     C0000051  1.          
 UP BOUND     C0000052  1.          
 UP BOUND     C0000053  1.          
 UP BOUND     C0000054  1.          
 UP BOUND     C0000055  1.          
 UP BOUND     C0000056  1.          
 UP BOUND     C0000057  1.          
 UP BOUND     C0000058  1.          
 UP BOUND     C0000059  1.          
 UP BOUND     C0000060  1.          
 UP BOUND     C0000061  1.          
 UP BOUND     C0000062  1.          
 UP BOUND     C0000063  1.          
 UP BOUND     C0000064  1.          
 UP BOUND     C0000065  1.          
 UP BOUND     C0000066  1.          
 UP BOUND     C0000067  1.          
 UP BOUND     C0000068  1.          
 UP BOUND     C0000069  1.          
 UP BOUND     C0000070  1.          
 BV BOUND     C0000071  1.          
 BV BOUND     C0000072  1.          
 BV BOUND     C0000073  1.          
 BV BOUND     C0000074  1.          
 BV BOUND     C0000075  1.          
 BV BOUND     C0000076  1.          
 BV BOUND     C0000077  1.          
 BV BOUND     C0000078  1.          
 BV BOUND     C0000079  1.          
 BV BOUND     C0000080  1.          
 BV BOUND     C0000081  1.          
 BV BOUND     C0000082  1.          
 BV BOUND     C0000083  1.          
 BV BOUND     C0000084  1.          
 BV BOUND     C0000085  1.          
 BV BOUND     C0000086  1.          
 BV BOUND     C0000087  1.          
 BV BOUND     C0000088  1.          
 BV BOUND     C0000089  1.          
 BV BOUND     C0000090  1.          
 BV BOUND     C0000091  1.          
 BV BOUND     C0000092  1.          
 BV BOUND     C0000093  1.          
 BV BOUND     C0000094  1.          
 BV BOUND     C0000095  1.          
 BV BOUND     C0000096  1.          
 BV BOUND     C0000097  1.          
 BV BOUND     C0000098  1.          
 BV BOUND     C0000099  1.          
 BV BOUND     C0000100  1.          
 BV BOUND     C0000101  1.          
 BV BOUND     C0000102  1.          
 BV BOUND     C0000103  1.          
 BV BOUND     C0000104  1.          
 BV BOUND     C0000105  1.          
 BV BOUND     C0000106  1.          
ENDATA
